 vasp.6.2.1 16May21 (build Nov 15 2021 14:57:28) complex
 executed on             LinuxPGI date 2023.07.25  02:29:55

 INCAR:
   SYSTEM = PSC
   ISTART = 1
   ICHARG = 1
   PREC = Normal
   ENCUT = 500
   GGA_COMPAT = F
   NELM = 600
   ISYM = 0
   LREAL = Auto
   ISMEAR = 0
   SIGMA = 0.05
   AMIN = 0.01
   BMIX = 0.01
   LVTOT = T
   LWAVE = F
   LDIPOL = T
   IDIPOL = 3
   LVDW = T
   IVDW = 12

 POTCAR:    PAW_PBE H 15Jun2001
 POTCAR:    PAW_PBE C 08Apr2002
 POTCAR:    PAW_PBE N 08Apr2002
 POTCAR:    PAW_PBE I 08Apr2002
 POTCAR:    PAW_PBE Pb 08Apr2002
 WARNING: For LVTOT=.TRUE., VASP.5.x writes the TOTAL local potential to the
     file LOCPOT. If you want only the Hartree contributions, use LVHAR=.TRUE.
     instead.

   TITEL  = PAW_PBE H 15Jun2001
   POMASS =    1.000; ZVAL   =    1.000    mass and valenz
   ENMAX  =  250.000; ENMIN  =  200.000 eV

   TITEL  = PAW_PBE C 08Apr2002
   POMASS =   12.011; ZVAL   =    4.000    mass and valenz
   ENMAX  =  400.000; ENMIN  =  300.000 eV

[...]

   TITEL  = PAW_PBE Pb 08Apr2002
   POMASS =  207.200; ZVAL   =    4.000    mass and valenz
   ENMAX  =   97.973; ENMIN  =   73.480 eV

 Optimization of the real space projectors (new method)

 maximal supplied QI-value         = 34.20
 optimisation between [QCUT,QGAM] = [ 11.29, 22.57] = [ 35.68,142.71] Ry
 Optimized for a Real-space Cutoff    1.16 Angstroem

   l    n(q)    QCUT    max X(q) W(low)/X(q) W(high)/X(q)  e(spline)
   0      8    11.287    19.460    0.40E-03    0.73E-03    0.16E-06
   0      8    11.287    12.209    0.38E-03    0.70E-03    0.15E-06
   1      7    11.287     4.655    0.22E-03    0.25E-04    0.22E-06
 Optimization of the real space projectors (new method)

[...]

   l    n(q)    QCUT    max X(q) W(low)/X(q) W(high)/X(q)  e(spline)
   0      9    11.376   194.483    0.24E-03    0.23E-03    0.67E-07
   0      9    11.376   190.334    0.23E-03    0.22E-03    0.65E-07
   1      8    11.376   116.687    0.25E-03    0.63E-04    0.16E-06
   1      8    11.376    88.696    0.25E-03    0.61E-04    0.16E-06
   2      8    11.376     4.877    0.17E-03    0.14E-03    0.29E-07
 Optimization of the real space projectors (new method)

 maximal supplied QI-value         = 12.09
 optimisation between [QCUT,QGAM] = [ 11.37, 22.86] = [ 36.19,146.31] Ry
 Optimized for a Real-space Cutoff    1.66 Angstroem

   l    n(q)    QCUT    max X(q) W(low)/X(q) W(high)/X(q)  e(spline)
   0     11    11.369   135.111    0.12E-03    0.69E-04    0.19E-05
   0     11    11.369   146.850    0.11E-03    0.65E-04    0.18E-05
   1     11    11.369   148.016    0.17E-03    0.32E-03    0.89E-06
   1     11    11.369   122.989    0.17E-03    0.32E-03    0.91E-06
   2     10    11.369     8.916    0.12E-03    0.45E-04    0.33E-06
  PAW_PBE H 15Jun2001                   :
  PAW_PBE C 08Apr2002                   :
  PAW_PBE N 08Apr2002                   :
  PAW_PBE I 08Apr2002                   :
  PAW_PBE Pb 08Apr2002                  :

 POSCAR:  H  C  N  I Pb
  positions in cartesian coordinates
 exchange correlation table for  LEXCH =        8
   RHO(1)=    0.500       N(1)  =     2000
   RHO(2)=  100.500       N(2)  =     4000

 ion  position               nearest neighbor table
   1  0.453  0.336  0.564- 187 1.03
   2  0.434  0.830  0.570- 188 1.02
   3  0.961  0.329  0.576- 189 1.03
   4  0.945  0.817  0.573- 190 1.03
   5  0.333  0.955  0.572- 194 1.03
   6  0.351  0.551  0.558- 195 1.02
   7  0.806  0.088  0.564- 196 1.03
   8  0.011  0.143  0.559- 183 1.02
   9  0.071  0.662  0.570- 184 1.02
  10  0.552  0.160  0.558- 185 1.03
  11  0.497  0.644  0.559- 186 1.02
  12  0.364  0.029  0.557- 194 1.03
  13  0.294  0.629  0.553- 195 1.03
  14  0.879  0.027  0.557- 196 1.03
  15  0.955  0.193  0.577- 183 1.04
  16  0.991  0.691  0.583- 184 1.04
  17  0.566  0.251  0.567- 185 1.03
  18  0.436  0.694  0.575- 186 1.03
  19  0.281  0.439  0.572- 191 1.03
  20  0.201  0.928  0.573- 192 1.02
  21  0.682  0.031  0.570- 193 1.02
  22  0.373  0.291  0.555- 187 1.03
  23  0.500  0.869  0.553- 188 1.02
  24  0.019  0.368  0.557- 189 1.03
  25  0.994  0.866  0.554- 190 1.03
  26  0.184  0.444  0.569- 191 1.02
  27  0.141  0.991  0.560- 192 1.03
  28  0.676  0.936  0.564- 193 1.03
  29  0.431  0.180  0.549- 146 1.09
  30  0.547  0.752  0.543- 147 1.09
  31  0.063  0.252  0.545- 144 1.09
  32  0.083  0.771  0.550- 145 1.09
  33  0.184  0.562  0.557- 148 1.10
  34  0.241  0.065  0.548- 149 1.10
  35  0.798  0.925  0.555- 150 1.10
  36  0.486  0.340  0.661- 205 1.03
  37  0.449  0.811  0.674- 206 1.02
  38  0.965  0.284  0.676- 207 1.02
  39  0.931  0.724  0.673- 208 1.02
  40  0.309  0.057  0.669- 209 1.03
  41  0.298  0.549  0.675- 210 1.02
  42  0.801  0.056  0.674- 211 1.03
  43  0.763  0.597  0.657- 212 1.02
  44  0.086  0.163  0.645- 197 1.02
  45  0.117  0.721  0.651- 198 1.02
  46  0.569  0.157  0.653- 199 1.02
  47  0.565  0.664  0.650- 200 1.02
  48  0.177  0.415  0.648- 201 1.02
  49  0.172  0.920  0.651- 202 1.02
  50  0.698  0.407  0.659- 203 1.02
  51  0.674  0.920  0.651- 204 1.03
  52  0.063  0.182  0.671- 197 1.01
  53  0.060  0.676  0.669- 198 1.02
  54  0.594  0.247  0.660- 199 1.02
  55  0.534  0.695  0.675- 200 1.03
  56  0.199  0.443  0.674- 201 1.03
  57  0.207  0.956  0.675- 202 1.02
  58  0.665  0.497  0.661- 203 1.02
  59  0.697  0.957  0.675- 204 1.02
  60  0.399  0.301  0.657- 205 1.02
[...]
 311  0.000  0.500  0.705- 239 3.13 263 3.13 271 3.20 276 3.20 278 3.21 285 3.21
 312  0.500  0.000  0.705- 264 3.13 240 3.18 272 3.20 275 3.20 281 3.21 282 3.21
 313  0.500  0.500  0.705- 241 3.13 265 3.13 273 3.20 274 3.20 280 3.21 283 3.21
 314  0.250  0.250  0.705- 266 3.13 242 3.16 270 3.20 274 3.20 282 3.21 278 3.21
 315  0.250  0.750  0.705- 267 3.13 243 3.14 271 3.20 275 3.20 283 3.21 279 3.21
 316  0.750  0.250  0.705- 268 3.13 244 3.16 272 3.20 276 3.20 284 3.21 280 3.21
 317  0.750  0.750  0.705- 269 3.13 245 3.15 273 3.20 277 3.20 285 3.21 281 3.21
 318  0.000  0.000  0.807- 286 3.22 293 3.22 300 3.23 295 3.23 262 3.27
 319  0.000  0.500  0.807- 287 3.22 292 3.22 301 3.23 294 3.23 263 3.27
 320  0.500  0.000  0.807- 288 3.22 291 3.22 298 3.23 297 3.23 264 3.27
 321  0.500  0.500  0.807- 289 3.22 290 3.22 299 3.23 296 3.23 265 3.27
 322  0.250  0.250  0.807- 290 3.22 286 3.22 294 3.23 298 3.23 266 3.27
 323  0.250  0.750  0.807- 291 3.22 287 3.22 299 3.23 295 3.23 267 3.27
 324  0.750  0.250  0.807- 292 3.22 288 3.22 296 3.23 300 3.23 268 3.27
 325  0.750  0.750  0.807- 293 3.22 289 3.22 297 3.23 301 3.23 269 3.27

IMPORTANT INFORMATION: All symmetrisations will be switched off!
NOSYMM: (Re-)initialisation of all symmetry stuff for point group C_1.

                                     Primitive cell

  volume of cell :   20385.2105

  direct lattice vectors                    reciprocal lattice vectors
    18.060800552  0.000000000  0.000000000     0.055368531  0.000015077 -0.000000000
    -0.004918649 18.062799454  0.000000000     0.000000000  0.055362404  0.000000000
     0.000000000  0.000000000 62.487499237     0.000000000 -0.000000000  0.016003201

  length of vectors
    18.060800552 18.062800123 62.487499237     0.055368533  0.055362404  0.016003201

  position of ions in fractional coordinates (direct lattice)
     0.452684262  0.335774171  0.564345725
     0.433549595  0.829774557  0.570074898
     0.961153422  0.328597300  0.575893811
     0.944799337  0.816879193  0.573067135
     0.333429586  0.955147602  0.572219004
     0.350621617  0.550637802  0.557979034
     0.806044802  0.087985042  0.564321856
     0.010766936  0.143391842  0.559445331
     0.071422479  0.661864874  0.570023497
     0.551725600  0.159711876  0.558138734
     0.496511877  0.643809327  0.559117568
     0.364268986  0.028887610  0.556645149
     0.294091215  0.628843554  0.552904594
     0.878709591  0.026645740  0.557040370
     0.954531444  0.192520474  0.577489773
     0.991258762  0.690511957  0.582983730
     0.566369405  0.250676339  0.567247856
     0.435946667  0.693673378  0.575051113
     0.280872198  0.439440903  0.572283897
     0.200983301  0.927877447  0.572593713
     0.682299108  0.030975092  0.569925271
     0.372706707  0.291431519  0.554892235
     0.499907058  0.869179647  0.553328690
     0.018754567  0.368443462  0.556823591
     0.994469904  0.865980370  0.554146908
     0.184486892  0.443524409  0.569242762
     0.141097797  0.990555115  0.560052874
     0.675878458  0.935764018  0.563595758
     0.430889133  0.180117317  0.548792627
     0.546833653  0.751989285  0.543495424
     0.062643946  0.251802250  0.545234847
     0.083493480  0.771238061  0.550312340
     0.184373205  0.562037934  0.556818951
     0.241210729  0.064702971  0.547931187
     0.798253349  0.925413451  0.555030080
     0.486479578  0.339808945  0.660703865
     0.449161689  0.810818809  0.673587729
     0.964660937  0.284450527  0.676151596
     0.930789997  0.724182055  0.672788497
     0.308786891  0.057163116  0.669447496
     0.297944736  0.548660633  0.675076613
     0.800777999  0.056314564  0.674269200
     0.762882490  0.597310654  0.656529813
     0.086493737  0.163391242  0.644761467
     0.117038427  0.721366776  0.651178706
     0.568611175  0.157012858  0.653099134
     0.564923119  0.664449216  0.650351697
     0.176895578  0.414689657  0.647737160
     0.172401060  0.919545369  0.651056122
     0.697654059  0.406523093  0.659491342
     0.674190054  0.919827018  0.650528673
     0.063256001  0.182399313  0.671347962
     0.060079085  0.676392320  0.669340236
     0.593566346  0.246992564  0.659595733
     0.534166694  0.694708424  0.675417501
     0.198779325  0.443302289  0.673719225
     0.207109887  0.955515088  0.674861604
     0.664879915  0.497317507  0.661160744
     0.697414945  0.956628680  0.675424583
     0.398716988  0.300810767  0.656525783
[...]
     0.000000500  0.500000475  0.704828963
     0.500000475  0.000000500  0.704828963
     0.500000464  0.500000475  0.704828963
     0.249999994  0.249999472  0.704824995
     0.250000010  0.749999498  0.704824995
     0.749999994  0.249999472  0.704824995
     0.749999983  0.749999498  0.704824995
     0.000000000  0.000000000  0.807317968
     0.000000000  0.500000000  0.807317968
     0.500000000  0.000000000  0.807317968
     0.499999989  0.500000000  0.807317968
     0.249999994  0.250000000  0.807317968
     0.250000010  0.749999974  0.807317968
     0.749999994  0.250000000  0.807317968
     0.749999983  0.749999974  0.807317968

  ion indices of the primitive-cell ions
   primitive index   ion index
                 1           1
                 2           2
                 3           3
                 4           4
                 5           5
                 6           6
                 7           7
                 8           8
                 9           9
                10          10
                11          11
                12          12
                13          13
                14          14
                15          15
                16          16
                17          17
                18          18
                19          19
                20          20
                21          21
[...]

  length of vectors
    18.060800552 18.062800123 62.487499237     0.055368533  0.055362404  0.016003201

 FORCES acting on ions
    electron-ion (+dipol)            ewald-force                    non-local-force                 convergence-correction
   -.119E+02 -.535E+02 0.114E+03   0.148E+02 0.593E+02 -.111E+03   -.295E+01 -.597E+01 -.301E+01   0.385E-03 0.621E-03 0.627E-03
   0.522E+02 -.210E+02 0.964E+02   -.576E+02 0.222E+02 -.914E+02   0.529E+01 -.105E+01 -.496E+01   -.651E-03 0.120E-03 0.170E-02
   0.299E+02 -.790E+01 0.769E+02   -.342E+02 0.894E+01 -.713E+02   0.425E+01 -.106E+01 -.560E+01   -.563E-03 0.373E-03 0.161E-02
   0.484E+02 -.134E+02 0.928E+02   -.536E+02 0.136E+02 -.877E+02   0.515E+01 -.237E+00 -.506E+01   -.708E-03 -.449E-05 0.140E-02
   -.202E+02 0.467E+02 0.992E+02   0.219E+02 -.522E+02 -.946E+02   -.178E+01 0.541E+01 -.453E+01   0.539E-03 -.522E-03 0.125E-02
   -.536E+02 0.195E+02 0.154E+03   0.604E+02 -.224E+02 -.153E+03   -.670E+01 0.285E+01 -.503E+00   0.459E-03 -.122E-03 0.558E-03
   0.829E+01 -.599E+02 0.135E+03   -.105E+02 0.668E+02 -.134E+03   0.225E+01 -.677E+01 -.130E+01   0.167E-04 0.699E-03 0.739E-03
   -.252E+02 0.626E+02 0.179E+03   0.275E+02 -.693E+02 -.181E+03   -.221E+01 0.654E+01 0.261E+01   0.270E-03 -.676E-03 0.157E-03
   -.530E+02 0.464E+02 0.147E+03   0.582E+02 -.519E+02 -.148E+03   -.517E+01 0.548E+01 0.764E+00   0.534E-03 -.845E-03 0.752E-03
   -.259E+02 0.694E+02 0.156E+03   0.283E+02 -.761E+02 -.157E+03   -.251E+01 0.683E+01 0.535E+00   0.436E-03 -.680E-03 0.332E-03
   -.128E+02 0.517E+02 0.160E+03   0.155E+02 -.583E+02 -.162E+03   -.275E+01 0.662E+01 0.166E+01   0.471E-03 -.546E-03 0.439E-03
   -.489E+02 -.357E+02 0.184E+03   0.543E+02 0.394E+02 -.186E+03   -.568E+01 -.389E+01 0.232E+01   0.248E-03 -.344E-04 0.319E-03
   0.572E+01 -.665E+02 0.185E+03   -.625E+01 0.732E+02 -.186E+03   0.559E+00 -.688E+01 0.163E+01   0.442E-04 -.284E-04 0.343E-03
   -.648E+02 0.614E+01 0.177E+03   0.714E+02 -.705E+01 -.179E+03   -.676E+01 0.101E+01 0.184E+01   0.540E-03 -.237E-04 0.814E-04
   0.401E+02 0.125E+02 0.801E+02   -.446E+02 -.129E+02 -.751E+02   0.478E+01 0.194E+00 -.520E+01   -.557E-03 -.493E-04 0.157E-02
   0.347E+02 0.129E+02 0.714E+02   -.395E+02 -.142E+02 -.668E+02   0.490E+01 0.150E+01 -.470E+01   -.903E-03 -.357E-03 0.181E-02
   -.412E+02 -.293E+02 0.103E+03   0.454E+02 0.338E+02 -.997E+02   -.433E+01 -.462E+01 -.343E+01   0.804E-03 0.803E-03 0.971E-03
   0.513E+02 0.934E+00 0.785E+02   -.562E+02 -.117E+01 -.732E+02   0.492E+01 0.223E+00 -.536E+01   -.364E-03 -.212E-03 0.158E-02
   -.449E+02 0.429E+02 0.113E+03   0.506E+02 -.464E+02 -.111E+03   -.575E+01 0.348E+01 -.273E+01   0.959E-03 -.497E-03 0.133E-02
   0.252E+00 0.563E+02 0.101E+03   0.363E+00 -.624E+02 -.970E+02   -.673E+00 0.610E+01 -.416E+01   0.210E-03 -.571E-03 0.120E-02
   0.384E+02 -.509E+02 0.116E+03   -.417E+02 0.570E+02 -.113E+03   0.327E+01 -.614E+01 -.261E+01   -.303E-03 0.676E-03 0.122E-02
   0.754E+02 -.542E+01 0.172E+03   -.828E+02 0.565E+01 -.173E+03   0.722E+01 -.272E+00 0.117E+01   -.249E-03 0.230E-03 0.115E-03
   -.241E+02 -.632E+02 0.187E+03   0.273E+02 0.693E+02 -.190E+03   -.324E+01 -.615E+01 0.245E+01   0.471E-03 0.586E-03 0.125E-03
   -.387E+02 -.495E+02 0.183E+03   0.417E+02 0.556E+02 -.186E+03   -.289E+01 -.613E+01 0.264E+01   0.265E-03 0.797E-03 0.262E-03
   -.900E+01 -.615E+02 0.197E+03   0.102E+02 0.680E+02 -.200E+03   -.108E+01 -.642E+01 0.321E+01   0.892E-04 0.502E-03 0.334E-04
   0.576E+02 0.391E+02 0.130E+03   -.641E+02 -.422E+02 -.129E+03   0.667E+01 0.303E+01 -.140E+01   -.985E-03 -.361E-03 0.978E-03
   0.593E+02 -.166E+02 0.169E+03   -.657E+02 0.185E+02 -.170E+03   0.662E+01 -.193E+01 0.137E+01   -.788E-03 0.248E-03 0.130E-03
   0.441E+02 0.497E+02 0.150E+03   -.479E+02 -.556E+02 -.150E+03   0.393E+01 0.608E+01 0.232E+00   -.220E-03 -.640E-03 0.732E-03
   0.411E+02 0.522E+02 0.192E+03   -.444E+02 -.569E+02 -.194E+03   0.321E+01 0.472E+01 0.220E+01   -.324E-04 0.375E-04 0.245E-03
   -.348E+02 -.110E+02 0.211E+03   0.396E+02 0.106E+02 -.215E+03   -.474E+01 0.370E+00 0.386E+01   0.357E-04 -.297E-03 -.318E-04
   -.508E+02 0.863E+01 0.219E+03   0.552E+02 -.899E+01 -.223E+03   -.449E+01 0.334E+00 0.413E+01   0.817E-04 0.192E-04 0.170E-04
   -.513E+02 -.121E+02 0.210E+03   0.562E+02 0.129E+02 -.214E+03   -.489E+01 -.779E+00 0.364E+01   0.132E-04 0.157E-03 0.127E-03
   0.486E+02 -.287E+02 0.175E+03   -.538E+02 0.313E+02 -.176E+03   0.537E+01 -.259E+01 0.102E+01   -.257E-03 0.109E-03 0.601E-03
   0.124E+02 -.495E+02 0.207E+03   -.134E+02 0.545E+02 -.210E+03   0.104E+01 -.505E+01 0.317E+01   0.967E-04 0.180E-04 0.900E-04
   -.254E+02 0.499E+02 0.182E+03   0.274E+02 -.553E+02 -.184E+03   -.201E+01 0.547E+01 0.170E+01   0.381E-03 -.137E-03 0.467E-03
   -.310E+02 -.581E+02 -.849E+01   0.347E+02 0.638E+02 0.989E+01   -.390E+01 -.593E+01 -.145E+01   0.624E-03 0.119E-02 0.242E-02
   0.166E+02 -.120E+02 -.796E+02   -.181E+02 0.127E+02 0.869E+02   0.145E+01 -.718E+00 -.728E+01   -.368E-03 0.121E-03 0.312E-02
   0.903E+01 -.756E+00 -.873E+02   -.960E+01 0.525E+00 0.950E+02   0.578E+00 0.223E+00 -.758E+01   -.934E-04 0.209E-03 0.296E-02
   0.239E+02 0.370E+02 -.614E+02   -.260E+02 -.418E+02 0.669E+02   0.203E+01 0.469E+01 -.538E+01   -.412E-03 -.894E-03 0.279E-02
   -.153E+02 -.182E+02 -.720E+02   0.166E+02 0.197E+02 0.789E+02   -.136E+01 -.161E+01 -.705E+01   0.113E-03 0.529E-04 0.353E-02
   -.702E+01 -.119E+02 -.837E+02   0.739E+01 0.127E+02 0.913E+02   -.395E+00 -.882E+00 -.747E+01   0.135E-03 0.129E-03 0.280E-02
   -.835E+01 -.177E+02 -.792E+02   0.873E+01 0.190E+02 0.859E+02   -.404E+00 -.140E+01 -.709E+01   0.190E-03 0.218E-03 0.376E-02
   0.390E+02 -.585E+02 0.219E+01   -.436E+02 0.645E+02 -.151E+01   0.450E+01 -.589E+01 -.640E+00   -.861E-03 0.178E-02 0.205E-02
   -.399E+02 0.405E+02 0.677E+02   0.440E+02 -.445E+02 -.726E+02   -.403E+01 0.394E+01 0.485E+01   0.769E-03 -.864E-03 0.111E-02
   -.633E+02 -.352E+01 0.445E+02   0.704E+02 0.438E+01 -.474E+02   -.689E+01 -.813E+00 0.283E+01   0.138E-03 -.204E-03 0.193E-02
   -.270E+02 0.641E+02 0.278E+02   0.292E+02 -.715E+02 -.292E+02   -.221E+01 0.720E+01 0.135E+01   -.310E-04 -.508E-03 0.175E-02
   -.381E+02 0.474E+02 0.477E+02   0.420E+02 -.522E+02 -.516E+02   -.403E+01 0.486E+01 0.393E+01   0.639E-03 -.571E-03 0.133E-02
   0.387E+02 0.455E+02 0.576E+02   -.427E+02 -.501E+02 -.620E+02   0.394E+01 0.457E+01 0.441E+01   -.710E-03 -.770E-03 0.134E-02
   0.452E+02 0.447E+02 0.459E+02   -.498E+02 -.493E+02 -.491E+02   0.466E+01 0.476E+01 0.334E+01   -.406E-04 -.114E-03 0.201E-02
   0.216E+02 0.668E+02 0.217E+00   -.230E+02 -.742E+02 0.325E+00   0.143E+01 0.732E+01 -.589E+00   0.211E-03 -.329E-03 0.222E-02
   0.408E+02 0.439E+02 0.491E+02   -.449E+02 -.484E+02 -.529E+02   0.420E+01 0.466E+01 0.387E+01   -.513E-03 -.570E-03 0.142E-02
   -.134E+02 0.197E+02 -.747E+02   0.146E+02 -.213E+02 0.824E+02   -.107E+01 0.153E+01 -.735E+01   0.199E-03 -.270E-03 0.343E-02
   -.210E+01 0.497E+02 -.551E+02   0.157E+01 -.549E+02 0.606E+02   0.579E+00 0.512E+01 -.543E+01   0.515E-04 -.420E-03 0.235E-02
   -.543E+02 -.394E+02 -.831E+01   0.600E+02 0.443E+02 0.996E+01   -.553E+01 -.483E+01 -.165E+01   0.375E-03 0.405E-03 0.214E-02
   -.309E+01 0.132E+02 -.846E+02   0.315E+01 -.140E+02 0.916E+02   -.783E-01 0.974E+00 -.728E+01   -.227E-04 -.128E-03 0.313E-02
   0.141E+02 0.121E+02 -.796E+02   -.151E+02 -.129E+02 0.865E+02   0.108E+01 0.842E+00 -.716E+01   -.175E-03 -.156E-03 0.366E-02
   0.569E+01 0.358E+01 -.842E+02   -.587E+01 -.368E+01 0.917E+02   0.195E+00 0.128E+00 -.749E+01   -.870E-04 -.158E-03 0.230E-02
   0.585E+02 -.372E+02 -.104E+02   -.642E+02 0.416E+02 0.117E+02   0.572E+01 -.450E+01 -.132E+01   -.146E-03 0.622E-03 0.228E-02
   0.152E+02 0.253E+01 -.833E+02   -.165E+02 -.248E+01 0.907E+02   0.129E+01 -.278E-01 -.737E+01   -.190E-03 -.178E-03 0.283E-02
   0.666E+02 -.163E+02 0.153E+02   -.740E+02 0.172E+02 -.157E+02   0.734E+01 -.985E+00 0.370E+00   -.132E-02 0.219E-03 0.204E-02
[...]
   0.793E+00 -.346E+00 -.222E+03   -.789E+00 0.298E+00 0.222E+03   0.321E-01 0.150E+00 0.149E+00   -.559E-03 0.385E-04 0.901E-02
   0.287E+01 0.773E+00 -.225E+03   -.290E+01 -.724E+00 0.225E+03   0.118E-01 -.163E+00 0.157E+00   -.442E-03 0.134E-03 0.938E-02
   0.203E+01 0.188E+01 -.221E+03   -.207E+01 -.186E+01 0.222E+03   0.164E+00 0.207E-01 -.419E-01   0.132E-03 0.533E-04 0.944E-02
   -.373E+00 -.134E+01 -.224E+03   0.344E+00 0.132E+01 0.224E+03   -.150E-01 0.529E-01 0.172E-01   0.684E-04 -.296E-03 0.903E-02
   -.116E+01 0.560E+01 -.223E+03   0.119E+01 -.566E+01 0.223E+03   -.125E+00 0.975E-01 0.325E-01   0.257E-03 0.297E-03 0.955E-02
   0.180E+01 -.376E+01 -.226E+03   -.179E+01 0.376E+01 0.226E+03   -.176E-01 0.818E-01 0.737E-01   0.411E-03 -.589E-03 0.864E-02
   -.129E+00 -.205E+00 -.765E+03   0.129E+00 0.205E+00 0.766E+03   -.982E-03 0.299E-02 -.213E+01   0.123E-03 0.906E-04 0.225E-02
   -.180E+00 0.217E+00 -.765E+03   0.180E+00 -.216E+00 0.767E+03   -.133E-02 -.378E-02 -.217E+01   0.154E-03 -.715E-04 0.197E-02
   0.134E+00 -.187E+00 -.765E+03   -.134E+00 0.186E+00 0.766E+03   0.158E-02 0.780E-02 -.217E+01   -.113E-03 -.194E-04 0.231E-02
   0.164E+00 0.185E+00 -.765E+03   -.164E+00 -.184E+00 0.767E+03   0.603E-03 -.733E-02 -.218E+01   -.155E-03 -.173E-04 0.214E-02
   0.445E-01 0.279E+00 -.765E+03   -.472E-01 -.281E+00 0.766E+03   0.133E-01 0.102E-01 -.219E+01   -.583E-04 0.202E-03 0.212E-02
   0.173E-01 -.278E+00 -.765E+03   -.201E-01 0.281E+00 0.767E+03   0.103E-01 -.930E-02 -.218E+01   0.323E-04 -.173E-03 0.209E-02
   -.361E-01 0.319E+00 -.765E+03   0.390E-01 -.322E+00 0.767E+03   -.143E-01 0.913E-02 -.219E+01   0.590E-04 0.153E-03 0.229E-02
   -.766E-02 -.318E+00 -.765E+03   0.102E-01 0.321E+00 0.767E+03   -.936E-02 -.976E-02 -.218E+01   -.266E-04 -.175E-03 0.242E-02
   -.936E+01 -.680E+01 -.806E+00   0.744E-12 0.209E-12 0.138E-10   0.929E+01 0.686E+01 -.210E+00   0.201E-01 -.591E-02 0.170E+01

 POSITION                                       TOTAL-FORCE (eV/Angst)
      8.17419      6.06502     35.26455        -0.049742     -0.245769     -0.123918
      7.82617     14.98805     35.62255        -0.038611      0.087323      0.086390
     17.35758      5.93539     35.98616        -0.103772     -0.013764      0.023415
     17.05981     14.75513     35.80953        -0.069023     -0.020955      0.046970
      6.01731     17.25264     35.75653        -0.010379     -0.059587      0.028347
      6.32980      9.94606     34.86671         0.185388     -0.094099      0.117074
     14.55738      1.58926     35.26306         0.005040      0.167962      0.019102
      0.19375      2.59006     34.95834         0.060276     -0.135622      0.073172
      1.28669     11.95513     35.61934         0.084971      0.055130      0.033762
      9.96382      2.88484     34.87669        -0.089478      0.172989     -0.053263
      8.96424     11.62900     34.93786        -0.007748      0.059342      0.007918
      6.57885      0.52179     34.78336        -0.215538     -0.182474      0.155452
      5.30843     11.35868     34.54963         0.034891     -0.172653      0.046366
     15.87007      0.48130     34.80806        -0.175935      0.107116      0.093555
     17.23866      3.47746     36.08589         0.213681     -0.120613     -0.197774
     17.89953     12.47258     36.42920         0.082279      0.112965     -0.163216
     10.22785      4.52792     35.44590        -0.179970     -0.079171     -0.074406
      7.87013     12.52968     35.93351         0.029691     -0.018822     -0.012476
      5.07062      7.93753     35.76059        -0.050031     -0.049896      0.017257
      3.62536     16.76006     35.77995        -0.058077     -0.005153      0.025162
     12.32272      0.55950     35.61320         0.015327     -0.052213     -0.006335
      6.72995      5.26407     34.67383        -0.115720     -0.036666     -0.032740
      9.02445     15.69982     34.57613        -0.016698     -0.009628     -0.024915
      0.33691      6.65512     34.79451         0.105208      0.048567     -0.009966
     17.95666     15.64203     34.62725         0.084045     -0.002458     -0.017072
      3.32980      8.01129     35.57056         0.104396      0.002981     -0.011632
      2.54347     17.89220     34.99630         0.247283     -0.055095     -0.007530
     12.20230     16.90252     35.21769         0.192578      0.256321     -0.023334
      7.78132      3.25342     34.29268        -0.064281      0.008911      0.013637
      9.87255     13.58303     33.96167         0.003319      0.010906      0.045082
      1.13016      4.54825     34.07036        -0.039893     -0.026220     -0.049928
      1.50417     13.93072     34.38764         0.057596     -0.004093     -0.053339
      3.32716     10.15198     34.79422         0.168096      0.000316      0.020031
      4.35614      1.16872     34.23885         0.001179     -0.100058      0.079826
     14.41254     16.71556     34.68244        -0.010492      0.071160      0.073051
      8.78454      6.13790     41.28573        -0.146835     -0.199822     -0.045097
      8.10823     14.64566     42.09081        -0.000870     -0.017246      0.060460
     17.42115      5.13797     42.25102         0.011662     -0.007054      0.115131
     16.80725     13.08076     42.04087        -0.085290     -0.132633      0.138122
      5.57666      1.03253     41.83210        -0.035638     -0.051143     -0.128238
      5.37842      9.91035     42.18385        -0.026816     -0.009009      0.093014
     14.46241      1.01720     42.13340        -0.018002     -0.057360     -0.334477
     13.77533     10.78910     41.02491        -0.067819      0.113166      0.042282
      1.56134      2.95130     40.28953         0.052208     -0.049446     -0.043154
      2.11026     13.02990     40.69053         0.180267      0.044380     -0.069391
     10.26880      2.83609     40.81053        -0.011432     -0.181438     -0.001002
     10.19970     12.00181     40.63885        -0.058649      0.062133      0.050028
      3.19284      7.49046     40.47548        -0.025424     -0.037132     -0.070067
      3.10918     16.60956     40.68287         0.133817      0.159409      0.107075
     12.59819      7.34295     41.20996         0.017458     -0.114905     -0.043720
     12.17189     16.61465     40.64991         0.074472      0.090085      0.034144
      1.14156      3.29464     41.95086         0.092266     -0.134010      0.332052
      1.08175     12.21754     41.82540         0.052918     -0.097083      0.064645
     10.71907      4.46138     41.21649         0.127584      0.089540      0.002485
      9.64406     12.54838     42.20515        -0.017481      0.079390     -0.249414
      3.58793      8.00728     42.09903         0.017431      0.037538     -0.249177
      3.73587     17.25928     42.17041         0.014401      0.017760     -0.021914
     12.00582      8.98295     41.31428         0.044871     -0.081315     -0.037939
     12.59117     17.27939     42.20559         0.037011      0.027027      0.015795
      7.19967      5.43348     41.02465        -0.039676     -0.047757     -0.026853
[...]
     -0.00245      9.03141     44.04300        -0.032285     -0.053904      0.197410
      9.03041      0.00001     44.04300         0.036080      0.099131      0.126521
      9.02795      9.03141     44.04300        -0.019842     -0.110905      0.283202
      4.51397      4.51569     44.04275         0.116619      0.033316      0.046463
      4.51151     13.54709     44.04275        -0.046579      0.032203      0.138260
     13.54437      4.51569     44.04275        -0.097444      0.038605      0.139641
     13.54191     13.54709     44.04275        -0.001337      0.075244      0.146715
      0.00000      0.00000     50.44728        -0.000968      0.002389     -0.597750
     -0.00246      9.03140     50.44728        -0.000852     -0.002824     -0.627081
      9.03040      0.00000     50.44728         0.001774      0.006080     -0.626691
      9.02794      9.03140     50.44728         0.000687     -0.006175     -0.635555
      4.51397      4.51570     50.44728         0.010693      0.007818     -0.639466
      4.51151     13.54710     50.44728         0.007696     -0.007501     -0.633841
     13.54437      4.51570     50.44728        -0.011296      0.006346     -0.641007
     13.54191     13.54710     50.44728        -0.006665     -0.007638     -0.631256
    total drift:                               -0.045276      0.056793      0.688990

  FREE ENERGIE OF THE ION-ELECTRON SYSTEM (eV)
  free  energy   TOTEN  =     -1576.27578547 eV

  energy  without entropy=    -1576.27578547  energy(sigma->0) =    -1576.27578547

 vacuum level on the upper side and lower side of the slab         2.292         1.616