 vasp.6.2.1 16May21 (build Nov 15 2021 14:57:28) complex
 executed on             LinuxPGI date 2023.07.30  10:55:55

 INCAR:
   SYSTEM = PSC
   ISTART = 1
   ICHARG = 1
   PREC = Normal
   ENCUT = 500
   GGA_COMPAT = F
   NELM = 600
   ISYM = 0
   LREAL = Auto
   ISMEAR = 0
   SIGMA = 0.05
   AMIN = 0.01
   BMIX = 0.01
   LVTOT = T
   LWAVE = F
   LDIPOL = T
   IDIPOL = 3
   LVDW = T
   IVDW = 12

 POTCAR:    PAW_PBE H 15Jun2001
 POTCAR:    PAW_PBE C 08Apr2002
 POTCAR:    PAW_PBE N 08Apr2002
 POTCAR:    PAW_PBE I 08Apr2002
 POTCAR:    PAW_PBE Pb 08Apr2002
 WARNING: For LVTOT=.TRUE., VASP.5.x writes the TOTAL local potential to the
     file LOCPOT. If you want only the Hartree contributions, use LVHAR=.TRUE.
     instead.

   TITEL  = PAW_PBE H 15Jun2001
   POMASS =    1.000; ZVAL   =    1.000    mass and valenz
   ENMAX  =  250.000; ENMIN  =  200.000 eV

   TITEL  = PAW_PBE C 08Apr2002
   POMASS =   12.011; ZVAL   =    4.000    mass and valenz
   ENMAX  =  400.000; ENMIN  =  300.000 eV

[...]

   TITEL  = PAW_PBE Pb 08Apr2002
   POMASS =  207.200; ZVAL   =    4.000    mass and valenz
   ENMAX  =   97.973; ENMIN  =   73.480 eV

 Optimization of the real space projectors (new method)

 maximal supplied QI-value         = 34.20
 optimisation between [QCUT,QGAM] = [ 11.29, 22.57] = [ 35.68,142.71] Ry
 Optimized for a Real-space Cutoff    1.16 Angstroem

   l    n(q)    QCUT    max X(q) W(low)/X(q) W(high)/X(q)  e(spline)
   0      8    11.287    19.460    0.40E-03    0.73E-03    0.16E-06
   0      8    11.287    12.209    0.38E-03    0.70E-03    0.15E-06
   1      7    11.287     4.655    0.22E-03    0.25E-04    0.22E-06
 Optimization of the real space projectors (new method)

[...]

   l    n(q)    QCUT    max X(q) W(low)/X(q) W(high)/X(q)  e(spline)
   0      9    11.376   194.483    0.24E-03    0.23E-03    0.67E-07
   0      9    11.376   190.334    0.23E-03    0.22E-03    0.65E-07
   1      8    11.376   116.687    0.25E-03    0.63E-04    0.16E-06
   1      8    11.376    88.696    0.25E-03    0.61E-04    0.16E-06
   2      8    11.376     4.877    0.17E-03    0.14E-03    0.29E-07
 Optimization of the real space projectors (new method)

 maximal supplied QI-value         = 12.09
 optimisation between [QCUT,QGAM] = [ 11.37, 22.86] = [ 36.19,146.31] Ry
 Optimized for a Real-space Cutoff    1.66 Angstroem

   l    n(q)    QCUT    max X(q) W(low)/X(q) W(high)/X(q)  e(spline)
   0     11    11.369   135.111    0.12E-03    0.69E-04    0.19E-05
   0     11    11.369   146.850    0.11E-03    0.65E-04    0.18E-05
   1     11    11.369   148.016    0.17E-03    0.32E-03    0.89E-06
   1     11    11.369   122.989    0.17E-03    0.32E-03    0.91E-06
   2     10    11.369     8.916    0.12E-03    0.45E-04    0.33E-06
  PAW_PBE H 15Jun2001                   :
  PAW_PBE C 08Apr2002                   :
  PAW_PBE N 08Apr2002                   :
  PAW_PBE I 08Apr2002                   :
  PAW_PBE Pb 08Apr2002                  :

 POSCAR:  H  C  N  I Pb
  positions in cartesian coordinates
 exchange correlation table for  LEXCH =        8
   RHO(1)=    0.500       N(1)  =     2000
   RHO(2)=  100.500       N(2)  =     4000

 ion  position               nearest neighbor table
   1  0.425  0.260  0.581- 187 1.00
   2  0.415  0.739  0.577- 188 1.00
   3  0.935  0.288  0.582- 189 1.03
   4  0.945  0.810  0.579- 190 1.02
   5  0.312  0.062  0.579- 194 1.03
   6  0.304  0.580  0.575- 195 1.02
   7  0.787  0.076  0.581- 196 1.02
   8  0.105  0.200  0.564- 183 1.03
   9  0.085  0.675  0.565- 184 1.03
  10  0.602  0.196  0.563- 185 1.02
  11  0.607  0.743  0.563- 186 1.04
  12  0.370  0.018  0.561- 194 1.03
  13  0.270  0.614  0.552- 195 1.02
  14  0.857  0.055  0.563- 196 1.02
  15  0.069  0.252  0.585- 183 1.02
  16  0.010  0.691  0.582- 184 1.02
  17  0.535  0.179  0.582- 185 1.01
  18  0.545  0.697  0.581- 186 1.02
  19  0.269  0.446  0.584- 191 1.03
  20  0.176  0.024  0.577- 192 1.04
  21  0.675  0.993  0.580- 193 1.02
  22  0.421  0.327  0.561- 187 1.02
  23  0.394  0.804  0.558- 188 1.02
  24  0.889  0.254  0.559- 189 1.02
  25  0.976  0.871  0.559- 190 1.04
  26  0.213  0.402  0.565- 191 1.01
  27  0.153  0.961  0.557- 192 1.02
  28  0.680  0.920  0.562- 193 1.02
  29  0.532  0.290  0.547- 146 1.09
  30  0.519  0.809  0.546- 147 1.10
  31  0.994  0.200  0.546- 144 1.07
  32  0.068  0.788  0.548- 145 1.10
  33  0.207  0.505  0.543- 148 1.08
  34  0.274  0.950  0.545- 149 1.08
  35  0.795  0.955  0.549- 150 1.08
  36  0.436  0.284  0.675- 205 1.00
  37  0.431  0.821  0.672- 206 1.00
  38  0.973  0.274  0.682- 207 1.02
  39  0.934  0.786  0.675- 208 1.03
  40  0.297  0.047  0.677- 209 1.00
  41  0.298  0.551  0.675- 210 1.00
  42  0.797  0.056  0.675- 211 0.99
  43  0.807  0.552  0.676- 212 1.02
  44  0.083  0.168  0.644- 197 1.03
  45  0.097  0.688  0.654- 198 1.03
  46  0.581  0.174  0.650- 199 1.03
  47  0.561  0.675  0.656- 200 1.02
  48  0.182  0.410  0.649- 201 1.05
  49  0.173  0.921  0.646- 202 1.05
  50  0.672  0.426  0.653- 203 0.99
  51  0.667  0.927  0.650- 204 1.05
  52  0.071  0.178  0.672- 197 1.01
  53  0.037  0.688  0.676- 198 1.02
  54  0.535  0.183  0.674- 199 1.01
  55  0.523  0.718  0.679- 200 0.99
  56  0.212  0.435  0.675- 201 1.00
  57  0.188  0.947  0.673- 202 1.00
  58  0.711  0.446  0.677- 203 1.02
  59  0.689  0.962  0.675- 204 1.00
  60  0.424  0.334  0.652- 205 1.03
[...]
 222  0.454  0.796  0.753-  77 1.02 101 1.02 160 1.31
 223  0.954  0.296  0.753-  78 1.02 102 1.02 161 1.31
 224  0.954  0.796  0.753-  79 1.02 103 1.02 162 1.31
 225  0.296  0.046  0.753-  80 1.02 104 1.02 163 1.31
 226  0.296  0.546  0.753-  81 1.02 105 1.02 164 1.31
 227  0.796  0.046  0.753-  82 1.02 106 1.02 165 1.31
 228  0.796  0.546  0.753-  83 1.02 107 1.02 166 1.31
 229  0.775  0.521  0.552- 173 1.51 175 1.52 176 1.52 174 1.53
 230  0.508  0.989  0.553- 304 3.11
 231  0.457  0.477  0.555- 305 3.13
 232  0.995  0.011  0.551- 302 3.30
 233  0.035  0.491  0.558- 303 3.09
 234  0.245  0.246  0.555- 306 3.12
 235  0.239  0.771  0.551- 307 3.26
 236  0.743  0.226  0.555- 308 3.22
 237  0.716  0.789  0.545-
 238  0.002  0.997  0.654- 302 3.14 310 3.16
 239  1.000  0.506  0.656- 311 3.03 303 3.11
 240  0.495  0.002  0.655- 312 3.11 304 3.26
 241  0.495  0.499  0.655- 313 3.10 305 3.26
 242  0.255  0.240  0.656- 314 3.08 306 3.15
 243  0.253  0.754  0.654- 307 3.16 315 3.18
 244  0.744  0.250  0.655- 316 3.08 308 3.13
 245  0.757  0.756  0.654- 309 3.06 317 3.19
 246  0.149  0.105  0.610- 306 3.22 302 3.34
 247  0.151  0.607  0.609- 303 3.16 307 3.20
 248  0.646  0.107  0.610- 308 3.28 304 3.35
 249  0.610  0.640  0.615- 309 3.33 305 3.35
 250  0.363  0.389  0.613- 305 3.20 306 3.25
 251  0.362  0.890  0.609- 304 3.17 307 3.24
 252  0.890  0.362  0.616- 308 3.23 303 3.42
 253  0.861  0.891  0.608- 302 3.18 309 3.18
 254  0.117  0.360  0.612- 306 3.16 303 3.29
 255  0.115  0.871  0.608- 307 3.12 302 3.27
 256  0.617  0.370  0.607- 308 3.22 305 3.23
 257  0.618  0.866  0.613- 309 3.15 304 3.20
 258  0.398  0.141  0.609- 304 3.26 306 3.29
 259  0.384  0.640  0.607- 305 3.23 307 3.31
 260  0.886  0.137  0.613- 302 3.15 308 3.24
 261  0.915  0.665  0.614- 303 3.39 309 3.44
 262  0.000  0.000  0.755- 310 3.13 318 3.27
 263  0.000  0.500  0.755- 311 3.13 319 3.27
 264  0.500  0.000  0.755- 312 3.13 320 3.27
 265  0.500  0.500  0.755- 313 3.13 321 3.27
 266  0.250  0.250  0.755- 314 3.13 322 3.27
 267  0.250  0.750  0.755- 315 3.13 323 3.27
 268  0.750  0.250  0.755- 316 3.13 324 3.27
 269  0.750  0.750  0.755- 317 3.13 325 3.27
 270  0.136  0.114  0.705- 310 3.20 314 3.20
 271  0.136  0.614  0.705- 311 3.20 315 3.20
 272  0.636  0.114  0.705- 312 3.20 316 3.20
 273  0.636  0.614  0.705- 313 3.20 317 3.20
 274  0.364  0.386  0.705- 313 3.20 314 3.20
 275  0.364  0.886  0.705- 312 3.20 315 3.20
 276  0.864  0.386  0.705- 311 3.20 316 3.20
 277  0.864  0.886  0.705- 310 3.20 317 3.20
 278  0.114  0.364  0.705- 314 3.21 311 3.21
 279  0.114  0.864  0.705- 315 3.21 310 3.21
 280  0.614  0.364  0.705- 316 3.21 313 3.21
 281  0.614  0.864  0.705- 317 3.21 312 3.21
 282  0.386  0.136  0.705- 314 3.21 312 3.21
 283  0.386  0.636  0.705- 315 3.21 313 3.21
 284  0.886  0.136  0.705- 316 3.21 310 3.21
 285  0.886  0.636  0.705- 317 3.21 311 3.21
 286  0.135  0.115  0.801- 318 3.22 322 3.22
 287  0.135  0.615  0.801- 319 3.22 323 3.22
 288  0.635  0.115  0.801- 320 3.22 324 3.22
 289  0.635  0.615  0.801- 321 3.22 325 3.22
 290  0.365  0.385  0.801- 321 3.22 322 3.22
 291  0.365  0.885  0.801- 320 3.22 323 3.22
 292  0.865  0.385  0.801- 319 3.22 324 3.22
 293  0.865  0.885  0.801- 318 3.22 325 3.22
 294  0.115  0.365  0.801- 319 3.23 322 3.23
 295  0.115  0.865  0.801- 318 3.23 323 3.23
 296  0.615  0.365  0.801- 321 3.23 324 3.23
 297  0.615  0.865  0.801- 320 3.23 325 3.23
[...]
 311  0.000  0.500  0.705- 239 3.03 263 3.13 271 3.20 276 3.20 278 3.21 285 3.21
 312  0.500  0.000  0.705- 240 3.11 264 3.13 272 3.20 275 3.20 281 3.21 282 3.21
 313  0.500  0.500  0.705- 241 3.10 265 3.13 273 3.20 274 3.20 280 3.21 283 3.21
 314  0.250  0.250  0.705- 242 3.08 266 3.13 270 3.20 274 3.20 282 3.21 278 3.21
 315  0.250  0.750  0.705- 267 3.13 243 3.18 271 3.20 275 3.20 283 3.21 279 3.21
 316  0.750  0.250  0.705- 244 3.08 268 3.13 272 3.20 276 3.20 284 3.21 280 3.21
 317  0.750  0.750  0.705- 269 3.13 245 3.19 273 3.20 277 3.20 285 3.21 281 3.21
 318  0.000  0.000  0.807- 286 3.22 293 3.22 300 3.23 295 3.23 262 3.27
 319  0.000  0.500  0.807- 287 3.22 292 3.22 301 3.23 294 3.23 263 3.27
 320  0.500  0.000  0.807- 288 3.22 291 3.22 298 3.23 297 3.23 264 3.27
 321  0.500  0.500  0.807- 289 3.22 290 3.22 299 3.23 296 3.23 265 3.27
 322  0.250  0.250  0.807- 290 3.22 286 3.22 294 3.23 298 3.23 266 3.27
 323  0.250  0.750  0.807- 291 3.22 287 3.22 299 3.23 295 3.23 267 3.27
 324  0.750  0.250  0.807- 292 3.22 288 3.22 296 3.23 300 3.23 268 3.27
 325  0.750  0.750  0.807- 293 3.22 289 3.22 297 3.23 301 3.23 269 3.27

IMPORTANT INFORMATION: All symmetrisations will be switched off!
NOSYMM: (Re-)initialisation of all symmetry stuff for point group C_1.

                                     Primitive cell

  volume of cell :   20385.2105

  direct lattice vectors                    reciprocal lattice vectors
    18.060800552  0.000000000  0.000000000     0.055368531  0.000015077 -0.000000000
    -0.004918649 18.062799454  0.000000000     0.000000000  0.055362404  0.000000000
     0.000000000  0.000000000 62.487499237     0.000000000 -0.000000000  0.016003201

  length of vectors
    18.060800552 18.062800123 62.487499237     0.055368533  0.055362404  0.016003201

  position of ions in fractional coordinates (direct lattice)
     0.424831119  0.260017678  0.581159147
     0.414666408  0.739402788  0.577461141
     0.934818894  0.288170495  0.581808691
     0.944754357  0.810318023  0.579422471
     0.312095267  0.061508637  0.578825550
     0.304202236  0.579545547  0.575132429
     0.787224492  0.075707517  0.581240767
     0.104888959  0.200076617  0.564331806
     0.084573673  0.675226653  0.564877448
     0.601758886  0.195867690  0.563467559
     0.607255428  0.742672022  0.563260791
     0.370035828  0.018060068  0.560761878
[...]

  length of vectors
    18.060800552 18.062800123 62.487499237     0.055368533  0.055362404  0.016003201

 FORCES acting on ions
    electron-ion (+dipol)            ewald-force                    non-local-force                 convergence-correction
   0.365E+02 0.253E+02 0.731E+02   -.403E+02 -.289E+02 -.660E+02   0.329E+01 0.332E+01 -.639E+01   -.979E-04 -.319E-03 -.344E-03
   0.311E+02 0.364E+02 0.857E+02   -.341E+02 -.418E+02 -.789E+02   0.256E+01 0.468E+01 -.597E+01   -.483E-04 0.364E-03 0.591E-03
   0.792E+01 -.336E+02 0.535E+02   -.839E+01 0.373E+02 -.471E+02   0.349E+00 -.375E+01 -.624E+01   -.134E-03 0.875E-03 0.491E-04
   0.458E+02 0.969E+00 0.776E+02   -.505E+02 -.195E+01 -.715E+02   0.449E+01 0.103E+01 -.592E+01   -.528E-03 -.128E-03 -.691E-04
   -.496E+01 -.441E+02 0.809E+02   0.439E+01 0.485E+02 -.755E+02   0.408E+00 -.455E+01 -.564E+01   0.532E-03 0.122E-03 0.816E-03
   -.433E+02 -.215E+02 0.853E+02   0.475E+02 0.227E+02 -.792E+02   -.415E+01 -.139E+01 -.597E+01   0.763E-03 -.381E-03 -.405E-03
   0.215E+02 -.406E+02 0.753E+02   -.240E+02 0.450E+02 -.699E+02   0.233E+01 -.455E+01 -.545E+01   -.328E-03 0.119E-02 -.723E-04
   -.675E+02 0.397E+02 0.164E+03   0.732E+02 -.425E+02 -.167E+03   -.590E+01 0.312E+01 0.299E+01   -.719E-04 -.428E-03 0.533E-04
   -.584E+02 0.400E+02 0.172E+03   0.635E+02 -.440E+02 -.174E+03   -.553E+01 0.433E+01 0.218E+01   0.199E-03 -.167E-03 -.827E-03
   -.543E+02 0.240E+02 0.175E+03   0.614E+02 -.254E+02 -.178E+03   -.690E+01 0.141E+01 0.240E+01   0.389E-03 -.547E-03 -.194E-03
   -.542E+02 -.134E+02 0.165E+03   0.608E+02 0.148E+02 -.167E+03   -.646E+01 -.165E+01 0.185E+01   0.403E-03 0.661E-03 0.796E-04
   -.658E+02 0.431E+01 0.181E+03   0.727E+02 -.533E+01 -.183E+03   -.682E+01 0.941E+00 0.224E+01   0.617E-03 0.640E-04 0.319E-03
   -.535E+01 -.604E+02 0.216E+03   0.492E+01 0.662E+02 -.220E+03   0.281E+00 -.588E+01 0.461E+01   0.588E-03 -.450E-03 -.404E-03
   -.569E+02 -.134E+02 0.175E+03   0.636E+02 0.150E+02 -.177E+03   -.666E+01 -.185E+01 0.266E+01   0.130E-03 0.969E-03 -.728E-03
   -.250E+02 -.274E+02 0.509E+02   0.264E+02 0.312E+02 -.443E+02   -.140E+01 -.365E+01 -.638E+01   0.385E-03 -.549E-03 0.306E-03
   0.264E+02 0.241E+02 0.701E+02   -.305E+02 -.266E+02 -.643E+02   0.409E+01 0.235E+01 -.564E+01   -.287E-03 -.536E-03 0.752E-04
   0.148E+02 0.430E+02 0.698E+02   -.170E+02 -.472E+02 -.628E+02   0.189E+01 0.394E+01 -.648E+01   -.131E-03 -.659E-03 0.212E-03
   0.102E+02 0.411E+02 0.750E+02   -.112E+02 -.455E+02 -.689E+02   0.108E+01 0.425E+01 -.598E+01   0.512E-03 -.723E-04 0.568E-03
   -.367E+02 0.872E+01 0.628E+02   0.405E+02 -.919E+01 -.567E+02   -.377E+01 0.451E+00 -.623E+01   0.457E-05 -.684E-03 0.123E-02
   0.241E+02 -.321E+02 0.872E+02   -.262E+02 0.360E+02 -.821E+02   0.233E+01 -.404E+01 -.524E+01   -.333E-03 -.599E-03 0.997E-03
   0.454E+02 -.239E+02 0.807E+02   -.489E+02 0.272E+02 -.753E+02   0.366E+01 -.317E+01 -.555E+01   -.814E-03 -.597E-03 0.163E-02
   0.387E+02 -.490E+02 0.187E+03   -.421E+02 0.548E+02 -.190E+03   0.357E+01 -.576E+01 0.319E+01   -.854E-03 -.426E-05 -.493E-04
   0.491E+02 -.409E+02 0.198E+03   -.541E+02 0.450E+02 -.201E+03   0.504E+01 -.428E+01 0.355E+01   0.177E-04 0.103E-02 0.204E-03
   0.639E+02 0.159E+02 0.168E+03   -.704E+02 -.166E+02 -.172E+03   0.633E+01 0.691E+00 0.381E+01   -.836E-03 0.567E-03 -.347E-03
   0.719E+01 -.586E+02 0.189E+03   -.748E+01 0.646E+02 -.192E+03   0.304E+00 -.631E+01 0.293E+01   -.199E-03 0.520E-03 -.647E-03
   0.231E+02 0.591E+02 0.162E+03   -.271E+02 -.663E+02 -.164E+03   0.366E+01 0.667E+01 0.202E+01   -.676E-03 0.134E-03 -.354E-03
   0.489E+02 0.401E+02 0.195E+03   -.544E+02 -.440E+02 -.198E+03   0.556E+01 0.392E+01 0.335E+01   0.342E-05 -.123E-02 0.432E-03
   0.383E+02 0.537E+02 0.180E+03   -.413E+02 -.603E+02 -.183E+03   0.301E+01 0.633E+01 0.267E+01   0.349E-03 -.844E-03 0.329E-03
   -.151E+02 -.246E+02 0.226E+03   0.174E+02 0.276E+02 -.231E+03   -.212E+01 -.307E+01 0.483E+01   -.252E-03 -.104E-02 -.464E-03
   -.103E+02 -.394E+02 0.225E+03   0.119E+02 0.431E+02 -.229E+03   -.177E+01 -.377E+01 0.441E+01   0.477E-03 0.540E-03 0.303E-04
   -.432E+00 0.493E+02 0.200E+03   0.157E+00 -.526E+02 -.207E+03   0.344E+00 0.293E+01 0.575E+01   0.497E-03 -.216E-03 0.224E-03
   -.402E+02 -.190E+02 0.225E+03   0.438E+02 0.205E+02 -.229E+03   -.375E+01 -.151E+01 0.444E+01   0.431E-03 -.441E-03 -.816E-03
   0.220E+02 -.519E+01 0.233E+03   -.257E+02 0.490E+01 -.239E+03   0.350E+01 0.266E+00 0.531E+01   0.343E-03 -.108E-02 -.200E-03
   -.172E+02 0.395E+02 0.229E+03   0.187E+02 -.439E+02 -.235E+03   -.120E+01 0.399E+01 0.482E+01   -.160E-03 -.397E-03 0.131E-03
   -.245E+02 0.350E+02 0.222E+03   0.274E+02 -.388E+02 -.227E+03   -.278E+01 0.332E+01 0.462E+01   -.636E-03 -.258E-03 -.621E-03
   0.222E+02 0.515E+01 -.805E+02   -.246E+02 -.627E+01 0.886E+02   0.212E+01 0.111E+01 -.748E+01   -.216E-03 0.345E-04 0.155E-03
   0.182E+02 -.183E+02 -.725E+02   -.203E+02 0.203E+02 0.809E+02   0.180E+01 -.171E+01 -.749E+01   0.631E-03 0.449E-03 0.235E-04
   -.977E+00 0.203E+01 -.950E+02   0.148E+01 -.271E+01 0.102E+03   -.645E+00 0.815E+00 -.743E+01   -.602E-03 0.286E-03 -.424E-03
   0.344E+02 0.105E+02 -.741E+02   -.375E+02 -.119E+02 0.803E+02   0.311E+01 0.149E+01 -.647E+01   -.358E-03 0.309E-03 -.464E-03
   -.377E+01 -.138E+02 -.861E+02   0.361E+01 0.149E+02 0.948E+02   -.837E-01 -.128E+01 -.783E+01   0.330E-03 0.901E-03 0.267E-03
   -.154E+02 -.680E+01 -.836E+02   0.169E+02 0.705E+01 0.925E+02   -.129E+01 -.207E+00 -.794E+01   0.703E-03 -.232E-03 -.231E-03
   -.232E+01 -.183E+02 -.839E+02   0.222E+01 0.202E+02 0.930E+02   0.120E+00 -.172E+01 -.795E+01   -.359E-03 0.428E-03 0.320E-03
   -.208E+02 -.408E+00 -.812E+02   0.229E+02 0.229E+00 0.882E+02   -.195E+01 0.333E+00 -.713E+01   -.539E-03 -.262E-03 -.215E-03
   -.357E+02 0.338E+02 0.775E+02   0.391E+02 -.369E+02 -.826E+02   -.344E+01 0.327E+01 0.545E+01   0.107E-02 0.162E-03 -.160E-02
   -.569E+02 0.323E+02 0.460E+02   0.624E+02 -.350E+02 -.491E+02   -.582E+01 0.289E+01 0.335E+01   0.401E-03 -.895E-03 -.116E-02
   -.482E+02 0.355E+02 0.574E+02   0.530E+02 -.388E+02 -.611E+02   -.509E+01 0.348E+01 0.394E+01   0.103E-02 -.990E-03 -.149E-02
   -.433E+02 0.505E+02 0.342E+02   0.477E+02 -.556E+02 -.371E+02   -.444E+01 0.519E+01 0.308E+01   0.776E-03 -.155E-02 -.111E-02
   0.366E+02 0.437E+02 0.546E+02   -.397E+02 -.473E+02 -.579E+02   0.364E+01 0.429E+01 0.383E+01   -.554E-03 -.819E-03 -.132E-02
   0.362E+02 0.391E+02 0.662E+02   -.391E+02 -.421E+02 -.698E+02   0.357E+01 0.375E+01 0.426E+01   -.100E-02 -.361E-03 -.136E-02
   0.499E+02 0.451E+02 0.514E+02   -.557E+02 -.504E+02 -.563E+02   0.518E+01 0.471E+01 0.428E+01   -.959E-03 -.488E-03 -.328E-03
   0.426E+02 0.419E+02 0.535E+02   -.459E+02 -.453E+02 -.566E+02   0.393E+01 0.402E+01 0.370E+01   -.166E-02 -.721E-03 -.153E-02
   -.234E+02 0.230E+02 -.701E+02   0.258E+02 -.253E+02 0.776E+02   -.210E+01 0.209E+01 -.702E+01   0.113E-02 -.391E-04 0.219E-03
   0.122E+02 0.339E+02 -.758E+02   -.140E+02 -.372E+02 0.826E+02   0.182E+01 0.316E+01 -.668E+01   -.411E-03 -.508E-03 -.645E-03
   0.272E+01 0.276E+02 -.766E+02   -.354E+01 -.305E+02 0.845E+02   0.817E+00 0.261E+01 -.732E+01   -.452E-04 -.928E-03 0.601E-03
   -.531E+00 0.142E+01 -.921E+02   -.779E-01 -.100E+01 0.102E+03   0.665E+00 -.553E+00 -.829E+01   0.212E-03 -.544E-03 0.462E-03
   0.486E+01 0.192E+02 -.820E+02   -.506E+01 -.210E+02 0.909E+02   0.258E+00 0.176E+01 -.785E+01   0.408E-05 -.899E-04 -.104E-03
   0.237E+02 0.122E+02 -.759E+02   -.261E+02 -.132E+02 0.843E+02   0.234E+01 0.103E+01 -.747E+01   -.484E-03 0.480E-03 0.459E-03
   -.241E+00 0.199E+02 -.832E+02   0.710E+00 -.216E+02 0.905E+02   -.523E+00 0.165E+01 -.728E+01   -.927E-03 -.332E-03 -.163E-03
   0.221E+02 0.372E+01 -.820E+02   -.241E+02 -.356E+01 0.909E+02   0.195E+01 -.433E-01 -.781E+01   -.785E-03 0.385E-03 0.264E-03
   0.341E+02 -.511E+02 0.509E+02   -.375E+02 0.563E+02 -.544E+02   0.349E+01 -.533E+01 0.373E+01   -.338E-03 0.452E-03 -.638E-03
[...]
   -.256E+01 0.642E+00 -.224E+03   0.257E+01 -.658E+00 0.225E+03   0.104E-01 -.547E-02 -.166E+00   0.560E-03 0.133E-02 -.460E-02
   -.576E+00 -.244E+00 -.221E+03   0.593E+00 0.259E+00 0.221E+03   0.214E-01 -.446E-01 -.251E+00   0.563E-03 0.455E-03 -.352E-02
   -.158E+01 -.209E+01 -.227E+03   0.155E+01 0.211E+01 0.227E+03   0.268E-01 0.451E-01 -.129E+00   -.424E-03 -.231E-03 -.433E-02
   -.197E+01 0.139E+01 -.223E+03   0.196E+01 -.139E+01 0.223E+03   -.261E-01 -.199E-01 0.992E-01   0.392E-03 0.115E-03 -.311E-02
   0.341E+01 -.452E+00 -.224E+03   -.337E+01 0.438E+00 0.225E+03   -.893E-01 0.565E-01 -.509E-01   -.224E-02 -.181E-03 -.340E-02
   0.504E+01 -.109E+01 -.221E+03   -.504E+01 0.109E+01 0.221E+03   -.111E+00 0.205E-01 0.424E+00   -.139E-02 0.508E-03 -.411E-02
   0.821E-01 0.117E+00 -.769E+03   -.846E-01 -.122E+00 0.771E+03   0.110E-01 0.213E-01 -.216E+01   0.410E-05 0.227E-04 -.105E-02
   -.128E-01 -.104E+00 -.769E+03   0.104E-01 0.110E+00 0.771E+03   0.926E-02 -.228E-01 -.222E+01   0.731E-04 -.682E-05 -.600E-03
   -.112E+00 0.725E-01 -.768E+03   0.115E+00 -.783E-01 0.770E+03   -.842E-02 0.240E-01 -.220E+01   0.349E-04 0.105E-03 -.137E-02
   -.146E-01 -.617E-01 -.768E+03   0.175E-01 0.672E-01 0.770E+03   -.121E-01 -.225E-01 -.221E+01   0.236E-04 -.796E-05 -.140E-02
   -.316E+00 -.123E+00 -.769E+03   0.314E+00 0.120E+00 0.770E+03   0.923E-02 0.180E-01 -.220E+01   0.104E-03 -.845E-04 -.113E-02
   -.277E+00 0.114E+00 -.769E+03   0.275E+00 -.110E+00 0.770E+03   0.104E-01 -.173E-01 -.216E+01   0.718E-04 -.158E-05 -.986E-03
   0.351E+00 -.324E-01 -.769E+03   -.348E+00 0.283E-01 0.770E+03   -.114E-01 0.164E-01 -.219E+01   -.228E-03 -.431E-04 -.147E-02
   0.304E+00 0.134E-01 -.769E+03   -.302E+00 -.979E-02 0.770E+03   -.793E-02 -.171E-01 -.211E+01   -.165E-03 0.687E-04 -.872E-03
   -.314E+01 -.597E+01 0.229E+02   -.538E-12 -.350E-12 -.229E-10   0.314E+01 0.602E+01 -.223E+02   -.487E-02 0.926E-02 -.669E+00

 POSITION                                       TOTAL-FORCE (eV/Angst)
      7.67151      4.69665     36.31518        -0.464716     -0.326087      0.677346
      7.48557     13.35568     36.08410        -0.459547     -0.704870      0.879711
     16.88216      5.20517     36.35577        -0.124769      0.020275      0.118974
     17.05903     14.63661     36.20666        -0.156908      0.054528      0.168140
      5.63639      1.11102     36.16936        -0.159228     -0.154321     -0.188768
      5.49129     10.46821     35.93859         0.067065     -0.184943      0.222043
     14.21753      1.36749     36.32028        -0.144582     -0.117620     -0.019951
      1.89339      3.61394     35.26368        -0.161718      0.257136      0.110137
      1.52415     12.19648     35.29778        -0.380550      0.254481      0.236733
     10.86728      3.53792     35.20968         0.144026      0.013313     -0.123303
     10.96387     13.41474     35.19676         0.138830     -0.278768     -0.003261
      6.68305      0.32622     35.04061         0.108423     -0.082296     -0.124878
      4.87484     11.08554     34.46294        -0.140506     -0.033528      0.034042
     15.47396      1.00080     35.19695        -0.014585     -0.262758     -0.034004
      1.24403      4.55887     36.56368        -0.041083      0.171778      0.226302
      0.17043     12.47500     36.39755        -0.034455     -0.185423      0.215424
      9.65944      3.22549     36.38731        -0.303363     -0.229957      0.503417
      9.83069     12.59070     36.29816         0.089343     -0.093796      0.185887
      4.85575      8.05955     36.46521         0.022324     -0.022237     -0.054566
      3.17657      0.43617     36.03738         0.264408     -0.133869     -0.192323
     12.18302     17.92799     36.24329         0.166793      0.106239     -0.106541
      7.60025      5.90861     35.06002         0.120638      0.048641      0.115352
      7.11891     14.52985     34.85130        -0.034150     -0.182471      0.218947
     16.05493      4.58542     34.94053        -0.136899      0.030578      0.060755
     17.62823     15.73233     34.95718         0.005264     -0.315692      0.230069
      3.84707      7.26134     35.31893        -0.300307     -0.480051     -0.234583
      2.76560     17.35865     34.79768         0.087323     -0.028902     -0.003369
     12.27572     16.61196     35.09977        -0.021370     -0.230117     -0.154167
      9.61112      5.23302     34.16758         0.178092     -0.121151      0.017222
      9.37577     14.61825     34.13969        -0.113164     -0.059080      0.166142
     17.94723      3.60827     34.09883         0.069102     -0.367483     -0.545435
      1.21886     14.23532     34.24167        -0.102924      0.013963      0.193869
      3.73875      9.11673     33.92392        -0.235024     -0.029638     -0.435374
      4.94478     17.16822     34.04445         0.259064     -0.368280     -0.354393
     14.34993     17.24956     34.30226         0.085660     -0.409349     -0.281939
      7.88045      5.13709     42.20544        -0.265236     -0.002762      0.578943
      7.77992     14.83042     41.97396        -0.245676      0.256142      0.930638
     17.56696      4.94689     42.64572        -0.140125      0.135442     -0.123348
     16.86649     14.20012     42.18795         0.044561      0.098525     -0.246110
      5.36640      0.84767     42.31079        -0.242162     -0.104963      0.856374
      5.38403      9.94510     42.20993         0.196194      0.045049      0.979117
     14.39922      1.01497     42.17715         0.019103      0.265629      1.163249
     14.57376      9.97845     42.26857         0.073221      0.153663     -0.080579
      1.50623      3.02752     40.24269        -0.116616      0.121430      0.302200
      1.74658     12.43179     40.86274        -0.350446      0.204906      0.275203
     10.49262      3.15093     40.58968        -0.290350      0.208518      0.208608
     10.13573     12.19540     41.01823        -0.028149      0.028268      0.182977
      3.28915      7.40826     40.57075         0.545580      0.637246      0.559563
      3.11746     16.64192     40.38454         0.672676      0.721655      0.644909
     12.13543      7.69597     40.78156        -0.687468     -0.574176     -0.590715
     12.04704     16.73718     40.59453         0.641548      0.661719      0.549249
      1.28991      3.21972     41.96626         0.219416     -0.229803      0.485871
      0.67145     12.42274     42.23639         0.028956     -0.177671      0.183835
      9.66136      3.30900     42.10173        -0.000683     -0.240200      0.561733
      9.44392     12.97377     42.42214         0.056283     -0.135721      1.441483
      3.83090      7.86353     42.15050         0.055183     -0.067737      1.074097
      3.39251     17.11323     42.02342        -0.044805      0.033650      0.900477
     12.84464      8.04877     42.30704        -0.054498     -0.055014     -0.005384
     12.43138     17.38510     42.15642        -0.102885      0.114022      1.051987
      7.66024      6.03036     40.72025         0.097766     -0.171808      0.209911
[...]
     -0.00245      9.03141     44.04300         0.080192     -0.075910      0.250623
      9.03041      0.00001     44.04300         0.023693     -0.019731      0.082920
      9.02795      9.03141     44.04300         0.038547     -0.028993      0.005106
      4.51397      4.51569     44.04275         0.000088      0.067358      0.172601
      4.51151     13.54709     44.04275        -0.036932     -0.019998      0.070817
     13.54437      4.51569     44.04275        -0.048739      0.041559      0.170640
     13.54191     13.54709     44.04275        -0.110613      0.016900      0.197656
      0.00000      0.00000     50.44728         0.008400      0.016145     -0.612862
     -0.00246      9.03140     50.44728         0.006942     -0.017495     -0.661647
      9.03040      0.00000     50.44728        -0.006122      0.018073     -0.646342
      9.02794      9.03140     50.44728        -0.009223     -0.017224     -0.657913
      4.51397      4.51570     50.44728         0.006955      0.013800     -0.646771
      4.51151     13.54710     50.44728         0.007854     -0.013659     -0.617761
     13.54437      4.51570     50.44728        -0.008826      0.012000     -0.642338
     13.54191     13.54710     50.44728        -0.006172     -0.013592     -0.583716
    total drift:                               -0.004059      0.059039     -0.017014

  FREE ENERGIE OF THE ION-ELECTRON SYSTEM (eV)
  free  energy   TOTEN  =     -1574.09604436 eV

  energy  without entropy=    -1574.09604436  energy(sigma->0) =    -1574.09604436

 vacuum level on the upper side and lower side of the slab         2.300         1.604